max: Z;
Z - p_27 <= 0;
Z - p_28 <= 0;
Z - p_29 <= 0;
Z - p_30 <= 0;
Z - p_31 <= 0;
Z - p_72 <= 0;
Z - p_87 <= 0;
p_0 + p_1 + p_2 + p_3 + p_4 + p_5 + p_6 + p_7 + p_8 + p_9 + p_10 <= 1.0;
p_0 + p_23 + p_34 + p_45 + p_56 + p_67 + p_78 + p_89 + p_100 + p_111 + p_122 <= 1.0;
p_1 + p_12 + p_35 + p_46 + p_57 + p_68 + p_79 + p_90 + p_101 + p_112 + p_123 <= 1.0;
p_2 + p_13 + p_24 + p_47 + p_58 + p_69 + p_80 + p_91 + p_102 + p_113 + p_124 <= 1.0;
p_3 + p_14 + p_25 + p_36 + p_59 + p_70 + p_81 + p_92 + p_103 + p_114 + p_125 <= 1.0;
p_4 + p_15 + p_26 + p_37 + p_48 + p_71 + p_82 + p_93 + p_104 + p_115 + p_126 <= 1.0;
p_6 + p_7 + p_8 + p_9 + p_10 + p_17 + p_18 + p_19 + p_20 + p_21 + p_28 + p_29 + p_30 + p_31 + p_32 + p_39 + p_40 + p_41 + p_42 + p_43 + p_50 + p_51 + p_52 + p_53 + p_54 + p_61 + p_62 + p_63 + p_64 + p_65 + p_72 + p_73 + p_74 + p_75 + p_76 <= 1.0;
p_7 + p_18 + p_29 + p_40 + p_51 + p_62 + p_73 + p_84 + p_107 + p_118 + p_129 <= 1.0;
p_8 + p_19 + p_30 + p_41 + p_52 + p_63 + p_74 + p_85 + p_96 + p_119 + p_130 <= 1.0;
p_9 + p_20 + p_31 + p_42 + p_53 + p_64 + p_75 + p_86 + p_97 + p_108 + p_131 <= 1.0;
p_10 + p_21 + p_32 + p_43 + p_54 + p_65 + p_76 + p_87 + p_98 + p_109 + p_120 <= 1.0;
p_11 + p_12 + p_13 + p_14 + p_15 + p_16 + p_17 + p_18 + p_19 + p_20 + p_21 <= 1.0;
p_11 + p_22 + p_33 + p_44 + p_55 + p_66 + p_77 + p_88 + p_99 + p_110 + p_121 <= 1.0;
p_22 + p_23 + p_24 + p_25 + p_26 + p_27 + p_28 + p_29 + p_30 + p_31 + p_32 <= 1.0;
p_33 + p_34 + p_35 + p_36 + p_37 + p_38 + p_39 + p_40 + p_41 + p_42 + p_43 <= 1.0;
p_44 + p_45 + p_46 + p_47 + p_48 + p_49 + p_50 + p_51 + p_52 + p_53 + p_54 <= 1.0;
p_55 + p_56 + p_57 + p_58 + p_59 + p_60 + p_61 + p_62 + p_63 + p_64 + p_65 <= 1.0;
p_77 + p_78 + p_79 + p_80 + p_81 + p_82 + p_83 + p_88 + p_89 + p_90 + p_91 + p_92 + p_93 + p_94 + p_99 + p_100 + p_101 + p_102 + p_103 + p_104 + p_105 + p_110 + p_111 + p_112 + p_113 + p_114 + p_115 + p_116 + p_121 + p_122 + p_123 + p_124 + p_125 + p_126 + p_127 <= 1.0;
p_88 + p_89 + p_90 + p_91 + p_92 + p_93 + p_94 + p_95 + p_96 + p_97 + p_98 <= 1.0;
p_99 + p_100 + p_101 + p_102 + p_103 + p_104 + p_105 + p_106 + p_107 + p_108 + p_109 <= 1.0;
p_110 + p_111 + p_112 + p_113 + p_114 + p_115 + p_116 + p_117 + p_118 + p_119 + p_120 <= 1.0;
p_121 + p_122 + p_123 + p_124 + p_125 + p_126 + p_127 + p_128 + p_129 + p_130 + p_131 <= 1.0;
p_0 >= 0;
p_1 >= 0;
p_2 >= 0;
p_3 >= 0;
p_4 >= 0;
p_5 >= 0;
p_6 >= 0;
p_7 >= 0;
p_8 >= 0;
p_9 >= 0;
p_10 >= 0;
p_11 >= 0;
p_12 >= 0;
p_13 >= 0;
p_14 >= 0;
p_15 >= 0;
p_16 >= 0;
p_17 >= 0;
p_18 >= 0;
p_19 >= 0;
p_20 >= 0;
p_21 >= 0;
p_22 >= 0;
p_23 >= 0;
p_24 >= 0;
p_25 >= 0;
p_26 >= 0;
p_27 >= 0;
p_28 >= 0;
p_29 >= 0;
p_30 >= 0;
p_31 >= 0;
p_32 >= 0;
p_33 >= 0;
p_34 >= 0;
p_35 >= 0;
p_36 >= 0;
p_37 >= 0;
p_38 >= 0;
p_39 >= 0;
p_40 >= 0;
p_41 >= 0;
p_42 >= 0;
p_43 >= 0;
p_44 >= 0;
p_45 >= 0;
p_46 >= 0;
p_47 >= 0;
p_48 >= 0;
p_49 >= 0;
p_50 >= 0;
p_51 >= 0;
p_52 >= 0;
p_53 >= 0;
p_54 >= 0;
p_55 >= 0;
p_56 >= 0;
p_57 >= 0;
p_58 >= 0;
p_59 >= 0;
p_60 >= 0;
p_61 >= 0;
p_62 >= 0;
p_63 >= 0;
p_64 >= 0;
p_65 >= 0;
p_66 >= 0;
p_67 >= 0;
p_68 >= 0;
p_69 >= 0;
p_70 >= 0;
p_71 >= 0;
p_72 >= 0;
p_73 >= 0;
p_74 >= 0;
p_75 >= 0;
p_76 >= 0;
p_77 >= 0;
p_78 >= 0;
p_79 >= 0;
p_80 >= 0;
p_81 >= 0;
p_82 >= 0;
p_83 >= 0;
p_84 >= 0;
p_85 >= 0;
p_86 >= 0;
p_87 >= 0;
p_88 >= 0;
p_89 >= 0;
p_90 >= 0;
p_91 >= 0;
p_92 >= 0;
p_93 >= 0;
p_94 >= 0;
p_95 >= 0;
p_96 >= 0;
p_97 >= 0;
p_98 >= 0;
p_99 >= 0;
p_100 >= 0;
p_101 >= 0;
p_102 >= 0;
p_103 >= 0;
p_104 >= 0;
p_105 >= 0;
p_106 >= 0;
p_107 >= 0;
p_108 >= 0;
p_109 >= 0;
p_110 >= 0;
p_111 >= 0;
p_112 >= 0;
p_113 >= 0;
p_114 >= 0;
p_115 >= 0;
p_116 >= 0;
p_117 >= 0;
p_118 >= 0;
p_119 >= 0;
p_120 >= 0;
p_121 >= 0;
p_122 >= 0;
p_123 >= 0;
p_124 >= 0;
p_125 >= 0;
p_126 >= 0;
p_127 >= 0;
p_128 >= 0;
p_129 >= 0;
p_130 >= 0;
p_131 >= 0;